\ENCODING=ISO-8859-1
\Problem name: Formulacao EEEE :D

Maximize
 obj: x1 + x6 + x7 + x10 + x16 + x23 + x32 + x36 + x42 + x46 + x58 + x66 + x72
      + x75 + x81
Subject To
 c1:   x1 + x29 + x50 + x60 + x73  = 1
 c2:   x6  = 1
 c3:   x7 + x45 + x76  = 1
 c4:   x10 + x15 + x30 + x51 + x77  = 1
 c5:   x11 + x16 + x22 + x40 + x52 + x68 + x78  = 1
 c6:   x17 + x23 + x31 + x41 + x53 + x61 + x79  = 1
 c7:   x2 + x12 + x24 + x32 + x54 + x62 + x69  = 1
 c8:   x36 + x55 + x63 + x70  = 1
 c9:   x18 + x25 + x42 + x56 + x74  = 1
 c10:  x8 + x46 + x57 + x64 + x71  = 1
 c11:  x3 + x13 + x19 + x26 + x33 + x37 + x43 + x47 + x58 + x65  = 1
 c12:  x4 + x27 + x34 + x38 + x48 + x59 + x66 + x80  = 1
 c13:  x20 + x35 + x39 + x49 + x72  = 1
 c14:  x5 + x44 + x75  = 1
 c15:  x9 + x14 + x21 + x28 + x67 + x81  = 1
 c16:  - x1 + x2 + x5 <= 0
 c17:  - x1 + x3 + x5 <= 0
 c18:  - x1 + x4 + x5 <= 0
 c19:  - x1 + x2 + x5 <= 0
 c20:  - x1 + x3 + x5 <= 0
 c21:  - x1 + x4 + x5 <= 0
 c22:  - x7 + x8 + x9 <= 0
 c23:  - x7 + x8 + x9 <= 0
 c24:  - x10 + x11 + x12 <= 0
 c25:  - x10 + x11 + x12 <= 0
 c26:  - x10 + x12 + x14 <= 0
 c27:  - x10 + x13 + x14 <= 0
 c28:  - x10 + x12 + x14 <= 0
 c29:  - x10 + x13 + x14 <= 0
 c30:  x15 - x16 + x17 <= 0
 c31:  x15 - x16 + x18 <= 0
 c32:  x15 - x16 + x20 <= 0
 c33:  x15 - x16 + x17 <= 0
 c34:  - x16 + x17 + x20 <= 0
 c35:  x15 - x16 + x18 <= 0
 c36:  - x16 + x18 + x20 <= 0
 c37:  - x16 + x18 + x21 <= 0
 c38:  - x16 + x19 + x20 <= 0
 c39:  - x16 + x19 + x21 <= 0
 c40:  x15 - x16 + x20 <= 0
 c41:  - x16 + x17 + x20 <= 0
 c42:  - x16 + x18 + x20 <= 0
 c43:  - x16 + x19 + x20 <= 0
 c44:  - x16 + x20 + x21 <= 0
 c45:  - x16 + x18 + x21 <= 0
 c46:  - x16 + x19 + x21 <= 0
 c47:  - x16 + x20 + x21 <= 0
 c48:  x22 - x23 + x24 <= 0
 c49:  x22 - x23 + x27 <= 0
 c50:  x22 - x23 + x24 <= 0
 c51:  - x23 + x24 + x25 <= 0
 c52:  - x23 + x24 + x28 <= 0
 c53:  - x23 + x24 + x25 <= 0
 c54:  - x23 + x25 + x27 <= 0
 c55:  - x23 + x25 + x28 <= 0
 c56:  - x23 + x26 + x28 <= 0
 c57:  x22 - x23 + x27 <= 0
 c58:  - x23 + x25 + x27 <= 0
 c59:  - x23 + x24 + x28 <= 0
 c60:  - x23 + x25 + x28 <= 0
 c61:  - x23 + x26 + x28 <= 0
 c62:  x29 + x30 - x32 <= 0
 c63:  x29 + x31 - x32 <= 0
 c64:  x29 - x32 + x35 <= 0
 c65:  x29 + x30 - x32 <= 0
 c66:  x30 + x31 - x32 <= 0
 c67:  x30 - x32 + x34 <= 0
 c68:  x30 - x32 + x35 <= 0
 c69:  x29 + x31 - x32 <= 0
 c70:  x30 + x31 - x32 <= 0
 c71:  x31 - x32 + x35 <= 0
 c72:  - x32 + x33 + x35 <= 0
 c73:  x30 - x32 + x34 <= 0
 c74:  - x32 + x34 + x35 <= 0
 c75:  x29 - x32 + x35 <= 0
 c76:  x30 - x32 + x35 <= 0
 c77:  x31 - x32 + x35 <= 0
 c78:  - x32 + x33 + x35 <= 0
 c79:  - x32 + x34 + x35 <= 0
 c80:  - x36 + x37 + x39 <= 0
 c81:  - x36 + x38 + x39 <= 0
 c82:  - x36 + x37 + x39 <= 0
 c83:  - x36 + x38 + x39 <= 0
 c84:  x40 - x42 + x44 <= 0
 c85:  x41 - x42 + x44 <= 0
 c86:  - x42 + x43 + x44 <= 0
 c87:  x40 - x42 + x44 <= 0
 c88:  x41 - x42 + x44 <= 0
 c89:  - x42 + x43 + x44 <= 0
 c90:  x45 - x46 + x47 <= 0
 c91:  x45 - x46 + x48 <= 0
 c92:  x45 - x46 + x49 <= 0
 c93:  x45 - x46 + x47 <= 0
 c94:  - x46 + x47 + x49 <= 0
 c95:  x45 - x46 + x48 <= 0
 c96:  - x46 + x48 + x49 <= 0
 c97:  x45 - x46 + x49 <= 0
 c98:  - x46 + x47 + x49 <= 0
 c99:  - x46 + x48 + x49 <= 0
 c100: x50 + x51 - x58 <= 0
 c101: x50 + x52 - x58 <= 0
 c102: x50 + x53 - x58 <= 0
 c103: x50 + x55 - x58 <= 0
 c104: x50 + x56 - x58 <= 0
 c105: x50 + x57 - x58 <= 0
 c106: x50 + x51 - x58 <= 0
 c107: x51 + x53 - x58 <= 0
 c108: x51 + x55 - x58 <= 0
 c109: x51 + x56 - x58 <= 0
 c110: x51 + x57 - x58 <= 0
 c111: x51 - x58 + x59 <= 0
 c112: x50 + x52 - x58 <= 0
 c113: x52 + x54 - x58 <= 0
 c114: x52 + x55 - x58 <= 0
 c115: x52 + x57 - x58 <= 0
 c116: x52 - x58 + x59 <= 0
 c117: x50 + x53 - x58 <= 0
 c118: x51 + x53 - x58 <= 0
 c119: x53 + x55 - x58 <= 0
 c120: x53 + x57 - x58 <= 0
 c121: x52 + x54 - x58 <= 0
 c122: x54 + x55 - x58 <= 0
 c123: x54 + x56 - x58 <= 0
 c124: x54 + x57 - x58 <= 0
 c125: x50 + x55 - x58 <= 0
 c126: x51 + x55 - x58 <= 0
 c127: x52 + x55 - x58 <= 0
 c128: x53 + x55 - x58 <= 0
 c129: x54 + x55 - x58 <= 0
 c130: x55 + x56 - x58 <= 0
 c131: x55 + x57 - x58 <= 0
 c132: x50 + x56 - x58 <= 0
 c133: x51 + x56 - x58 <= 0
 c134: x54 + x56 - x58 <= 0
 c135: x55 + x56 - x58 <= 0
 c136: x56 + x57 - x58 <= 0
 c137: x56 - x58 + x59 <= 0
 c138: x50 + x57 - x58 <= 0
 c139: x51 + x57 - x58 <= 0
 c140: x52 + x57 - x58 <= 0
 c141: x53 + x57 - x58 <= 0
 c142: x54 + x57 - x58 <= 0
 c143: x55 + x57 - x58 <= 0
 c144: x56 + x57 - x58 <= 0
 c145: x51 - x58 + x59 <= 0
 c146: x52 - x58 + x59 <= 0
 c147: x56 - x58 + x59 <= 0
 c148: x60 + x61 - x66 <= 0
 c149: x60 + x63 - x66 <= 0
 c150: x60 + x64 - x66 <= 0
 c151: x60 - x66 + x67 <= 0
 c152: x60 + x61 - x66 <= 0
 c153: x61 + x63 - x66 <= 0
 c154: x61 + x64 - x66 <= 0
 c155: x62 + x63 - x66 <= 0
 c156: x62 + x64 - x66 <= 0
 c157: x62 - x66 + x67 <= 0
 c158: x60 + x63 - x66 <= 0
 c159: x61 + x63 - x66 <= 0
 c160: x62 + x63 - x66 <= 0
 c161: x63 + x64 - x66 <= 0
 c162: x63 - x66 + x67 <= 0
 c163: x60 + x64 - x66 <= 0
 c164: x61 + x64 - x66 <= 0
 c165: x62 + x64 - x66 <= 0
 c166: x63 + x64 - x66 <= 0
 c167: x64 - x66 + x67 <= 0
 c168: x65 - x66 + x67 <= 0
 c169: x60 - x66 + x67 <= 0
 c170: x62 - x66 + x67 <= 0
 c171: x63 - x66 + x67 <= 0
 c172: x64 - x66 + x67 <= 0
 c173: x65 - x66 + x67 <= 0
 c174: x68 + x69 - x72 <= 0
 c175: x68 + x70 - x72 <= 0
 c176: x68 + x71 - x72 <= 0
 c177: x68 + x69 - x72 <= 0
 c178: x69 + x70 - x72 <= 0
 c179: x69 + x71 - x72 <= 0
 c180: x68 + x70 - x72 <= 0
 c181: x69 + x70 - x72 <= 0
 c182: x70 + x71 - x72 <= 0
 c183: x68 + x71 - x72 <= 0
 c184: x69 + x71 - x72 <= 0
 c185: x70 + x71 - x72 <= 0
 c186: x73 + x74 - x75 <= 0
 c187: x73 + x74 - x75 <= 0
 c188: x76 + x77 - x81 <= 0
 c189: x76 + x78 - x81 <= 0
 c190: x76 + x79 - x81 <= 0
 c191: x76 + x80 - x81 <= 0
 c192: x76 + x77 - x81 <= 0
 c193: x77 + x79 - x81 <= 0
 c194: x77 + x80 - x81 <= 0
 c195: x76 + x78 - x81 <= 0
 c196: x78 + x80 - x81 <= 0
 c197: x76 + x79 - x81 <= 0
 c198: x77 + x79 - x81 <= 0
 c199: x76 + x80 - x81 <= 0
 c200: x77 + x80 - x81 <= 0
 c201: x78 + x80 - x81 <= 0
 c202: - x1 + x5 - x32 >= -1
 c203: - x1 + x5 - x58 >= -1
 c204: - x1 + x5 - x66 >= -1
 c205: - x1 + x2 + x3 + x4 - x75 >= -1
 c206: - x7 + x9 - x46 >= -1
 c207: - x7 + x8 - x81 >= -1
 c208: - x10 + x12 - x16 >= -1
 c209: - x10 + x11 + x14 - x32 >= -1
 c210: - x10 + x14 - x58 >= -1
 c211: - x10 + x12 + x13 - x81 >= -1
 c212: - x10 - x16 + x17 + x18 + x20 >= -1
 c213: x15 - x16 + x20 - x23 >= -1
 c214: x15 - x16 + x20 + x21 - x42 >= -1
 c215: - x16 + x20 + x21 - x58 >= -1
 c216: x15 - x16 + x17 + x18 + x19 + x21 - x72 >= -1
 c217: - x16 + x18 + x19 + x20 - x81 >= -1
 c218: - x16 - x23 + x24 + x27 >= -1
 c219: x22 - x23 + x25 + x28 - x32 >= -1
 c220: - x23 + x24 + x27 + x28 - x42 >= -1
 c221: - x23 + x28 - x58 >= -1
 c222: x22 - x23 + x25 - x66 >= -1
 c223: - x23 + x24 + x25 + x26 - x81 >= -1
 c224: - x1 + x30 + x31 - x32 + x35 >= -1
 c225: - x10 + x29 + x31 - x32 + x34 + x35 >= -1
 c226: - x23 + x29 + x30 - x32 + x35 >= -1
 c227: - x32 + x35 - x58 >= -1
 c228: x30 - x32 + x35 - x66 >= -1
 c229: x29 + x30 + x31 - x32 + x33 + x34 - x72 >= -1
 c230: - x36 + x39 - x58 >= -1
 c231: - x36 + x39 - x66 >= -1
 c232: - x36 + x37 + x38 - x72 >= -1
 c233: - x16 - x42 + x44 >= -1
 c234: - x23 - x42 + x44 >= -1
 c235: - x42 + x44 - x58 >= -1
 c236: x40 + x41 - x42 + x43 - x75 >= -1
 c237: - x7 - x46 + x47 + x48 + x49 >= -1
 c238: x45 - x46 + x49 - x58 >= -1
 c239: x45 - x46 + x49 - x66 >= -1
 c240: x45 - x46 + x47 + x48 - x72 >= -1
 c241: - x1 + x51 + x52 + x53 + x55 + x56 + x57 - x58 >= -1
 c242: - x10 + x50 + x53 + x55 + x56 + x57 - x58 + x59 >= -1
 c243: - x16 + x50 + x54 + x55 + x57 - x58 + x59 >= -1
 c244: - x23 + x50 + x51 + x55 + x57 - x58 >= -1
 c245: - x32 + x52 + x55 + x56 + x57 - x58 >= -1
 c246: - x36 + x50 + x51 + x52 + x53 + x54 + x56 + x57 - x58 >= -1
 c247: - x42 + x50 + x51 + x54 + x55 + x57 - x58 + x59 >= -1
 c248: - x46 + x50 + x51 + x52 + x53 + x54 + x55 + x56 - x58 >= -1
 c249: x51 + x52 + x56 - x58 - x66 >= -1
 c250: - x1 + x61 + x63 + x64 - x66 + x67 >= -1
 c251: - x23 + x60 + x63 + x64 - x66 >= -1
 c252: - x32 + x63 + x64 - x66 + x67 >= -1
 c253: - x36 + x60 + x61 + x62 + x64 - x66 + x67 >= -1
 c254: - x46 + x60 + x61 + x62 + x63 - x66 + x67 >= -1
 c255: - x58 - x66 + x67 >= -1
 c256: x60 + x62 + x63 + x64 + x65 - x66 - x81 >= -1
 c257: - x16 + x69 + x70 + x71 - x72 >= -1
 c258: - x32 + x68 + x70 + x71 - x72 >= -1
 c259: - x36 + x68 + x69 + x71 - x72 >= -1
 c260: - x46 + x68 + x69 + x70 - x72 >= -1
 c261: - x1 + x74 - x75 >= -1
 c262: - x42 + x73 - x75 >= -1
 c263: - x7 + x77 + x78 + x79 + x80 - x81 >= -1
 c264: - x10 + x76 + x79 + x80 - x81 >= -1
 c265: - x16 + x76 + x80 - x81 >= -1
 c266: - x23 + x76 + x77 - x81 >= -1
 c267: - x66 + x76 + x77 + x78 - x81 >= -1
 c268: - x1 + x2 <= 0
 c269: - x1 + x3 <= 0
 c270: - x1 + x4 <= 0
 c271: - x1 + x5 <= 0
 c272: - x7 + x8 <= 0
 c273: - x7 + x9 <= 0
 c274: - x10 + x11 <= 0
 c275: - x10 + x12 <= 0
 c276: - x10 + x13 <= 0
 c277: - x10 + x14 <= 0
 c278: x15 - x16 <= 0
 c279: - x16 + x17 <= 0
 c280: - x16 + x18 <= 0
 c281: - x16 + x19 <= 0
 c282: - x16 + x20 <= 0
 c283: - x16 + x21 <= 0
 c284: x22 - x23 <= 0
 c285: - x23 + x24 <= 0
 c286: - x23 + x25 <= 0
 c287: - x23 + x26 <= 0
 c288: - x23 + x27 <= 0
 c289: - x23 + x28 <= 0
 c290: x29 - x32 <= 0
 c291: x30 - x32 <= 0
 c292: x31 - x32 <= 0
 c293: - x32 + x33 <= 0
 c294: - x32 + x34 <= 0
 c295: - x32 + x35 <= 0
 c296: - x36 + x37 <= 0
 c297: - x36 + x38 <= 0
 c298: - x36 + x39 <= 0
 c299: x40 - x42 <= 0
 c300: x41 - x42 <= 0
 c301: - x42 + x43 <= 0
 c302: - x42 + x44 <= 0
 c303: x45 - x46 <= 0
 c304: - x46 + x47 <= 0
 c305: - x46 + x48 <= 0
 c306: - x46 + x49 <= 0
 c307: x50 - x58 <= 0
 c308: x51 - x58 <= 0
 c309: x52 - x58 <= 0
 c310: x53 - x58 <= 0
 c311: x54 - x58 <= 0
 c312: x55 - x58 <= 0
 c313: x56 - x58 <= 0
 c314: x57 - x58 <= 0
 c315: - x58 + x59 <= 0
 c316: x60 - x66 <= 0
 c317: x61 - x66 <= 0
 c318: x62 - x66 <= 0
 c319: x63 - x66 <= 0
 c320: x64 - x66 <= 0
 c321: x65 - x66 <= 0
 c322: - x66 + x67 <= 0
 c323: x68 - x72 <= 0
 c324: x69 - x72 <= 0
 c325: x70 - x72 <= 0
 c326: x71 - x72 <= 0
 c327: x73 - x75 <= 0
 c328: x74 - x75 <= 0
 c329: x76 - x81 <= 0
 c330: x77 - x81 <= 0
 c331: x78 - x81 <= 0
 c332: x79 - x81 <= 0
 c333: x80 - x81 <= 0
Bounds
      x1 = 0
 0 <= x2 <= 1
 0 <= x3 <= 1
 0 <= x4 <= 1
 0 <= x5 <= 1
      x6 = 1
      x7 = 0
 0 <= x8 <= 1
 0 <= x9 <= 1
      x10 = 0
 0 <= x11 <= 1
 0 <= x12 <= 1
 0 <= x13 <= 1
 0 <= x14 <= 1
 0 <= x15 <= 1
      x16 = 0
 0 <= x17 <= 1
 0 <= x18 <= 1
 0 <= x19 <= 1
 0 <= x20 <= 1
 0 <= x21 <= 1
 0 <= x22 <= 1
      x23 = 0
 0 <= x24 <= 1
 0 <= x25 <= 1
 0 <= x26 <= 1
 0 <= x27 <= 1
 0 <= x28 <= 1
 0 <= x29 <= 1
 0 <= x30 <= 1
 0 <= x31 <= 1
      x32 = 0
 0 <= x33 <= 1
 0 <= x34 <= 1
 0 <= x35 <= 1
      x36 = 0
 0 <= x37 <= 1
 0 <= x38 <= 1
 0 <= x39 <= 1
 0 <= x40 <= 1
 0 <= x41 <= 1
      x42 = 0
 0 <= x43 <= 1
 0 <= x44 <= 1
 0 <= x45 <= 1
      x46 = 0
 0 <= x47 <= 1
 0 <= x48 <= 1
 0 <= x49 <= 1
 0 <= x50 <= 1
 0 <= x51 <= 1
 0 <= x52 <= 1
 0 <= x53 <= 1
 0 <= x54 <= 1
 0 <= x55 <= 1
 0 <= x56 <= 1
 0 <= x57 <= 1
      x58 = 0
 0 <= x59 <= 1
 0 <= x60 <= 1
 0 <= x61 <= 1
 0 <= x62 <= 1
 0 <= x63 <= 1
 0 <= x64 <= 1
 0 <= x65 <= 1
      x66 = 0
 0 <= x67 <= 1
 0 <= x68 <= 1
 0 <= x69 <= 1
 0 <= x70 <= 1
 0 <= x71 <= 1
      x72 = 0
 0 <= x73 <= 1
 0 <= x74 <= 1
      x75 = 0
 0 <= x76 <= 1
 0 <= x77 <= 1
 0 <= x78 <= 1
 0 <= x79 <= 1
 0 <= x80 <= 1
      x81 = 0
Binaries
 x1  x2  x3  x4  x5  x6  x7  x8  x9  x10  x11  x12  x13  x14  x15  x16  x17 
 x18  x19  x20  x21  x22  x23  x24  x25  x26  x27  x28  x29  x30  x31  x32 
 x33  x34  x35  x36  x37  x38  x39  x40  x41  x42  x43  x44  x45  x46  x47 
 x48  x49  x50  x51  x52  x53  x54  x55  x56  x57  x58  x59  x60  x61  x62 
 x63  x64  x65  x66  x67  x68  x69  x70  x71  x72  x73  x74  x75  x76  x77 
 x78  x79  x80  x81 
End
